\ Model STL formula: (G[0.0, 19.0] ((x <= 7.0) && (x >= 1.0)))
\ LP format - for model browsing. Use MPS format to capture full model detail.
Minimize
  - rho + 0 C82 + 0 C83 + 0 C84 + 0 C85 + 0 C86 + 0 C87 + 0 C88 + 0 C89
   + 0 C90 + 0 C91 + 0 C92 + 0 C93 + 0 C94 + 0 C95 + 0 C96 + 0 C97
Subject To
 R0: rho + 1000 predicate_2dx26371b974849c3b1_0 + x_0 >= 7
 R1: rho + 1000 predicate_2dx26371b974849c3b1_0 + x_0 <= 1007
 R2: - rho + x_0 - 1000 predicate_2dx71c23112d38d2a9_0 <= 1
 R3: - rho + x_0 - 1000 predicate_2dx71c23112d38d2a9_0 >= -999
 R4: &&_2dx59cee34f69f47c4d_0 - predicate_2dx26371b974849c3b1_0 <= 0
 R5: &&_2dx59cee34f69f47c4d_0 - predicate_2dx71c23112d38d2a9_0 <= 0
 R6: &&_2dx59cee34f69f47c4d_0 - predicate_2dx26371b974849c3b1_0
   - predicate_2dx71c23112d38d2a9_0 >= -1
 R7: rho + 1000 predicate_2dx26371b974849c3b1_1 + x_1 >= 7
 R8: rho + 1000 predicate_2dx26371b974849c3b1_1 + x_1 <= 1007
 R9: - rho + x_1 - 1000 predicate_2dx71c23112d38d2a9_1 <= 1
 R10: - rho + x_1 - 1000 predicate_2dx71c23112d38d2a9_1 >= -999
 R11: &&_2dx59cee34f69f47c4d_1 - predicate_2dx26371b974849c3b1_1 <= 0
 R12: &&_2dx59cee34f69f47c4d_1 - predicate_2dx71c23112d38d2a9_1 <= 0
 R13: &&_2dx59cee34f69f47c4d_1 - predicate_2dx26371b974849c3b1_1
   - predicate_2dx71c23112d38d2a9_1 >= -1
 R14: rho + 1000 predicate_2dx26371b974849c3b1_2 + x_2 >= 7
 R15: rho + 1000 predicate_2dx26371b974849c3b1_2 + x_2 <= 1007
 R16: - rho + x_2 - 1000 predicate_2dx71c23112d38d2a9_2 <= 1
 R17: - rho + x_2 - 1000 predicate_2dx71c23112d38d2a9_2 >= -999
 R18: &&_2dx59cee34f69f47c4d_2 - predicate_2dx26371b974849c3b1_2 <= 0
 R19: &&_2dx59cee34f69f47c4d_2 - predicate_2dx71c23112d38d2a9_2 <= 0
 R20: &&_2dx59cee34f69f47c4d_2 - predicate_2dx26371b974849c3b1_2
   - predicate_2dx71c23112d38d2a9_2 >= -1
 R21: rho + 1000 predicate_2dx26371b974849c3b1_3 + x_3 >= 7
 R22: rho + 1000 predicate_2dx26371b974849c3b1_3 + x_3 <= 1007
 R23: - rho + x_3 - 1000 predicate_2dx71c23112d38d2a9_3 <= 1
 R24: - rho + x_3 - 1000 predicate_2dx71c23112d38d2a9_3 >= -999
 R25: &&_2dx59cee34f69f47c4d_3 - predicate_2dx26371b974849c3b1_3 <= 0
 R26: &&_2dx59cee34f69f47c4d_3 - predicate_2dx71c23112d38d2a9_3 <= 0
 R27: &&_2dx59cee34f69f47c4d_3 - predicate_2dx26371b974849c3b1_3
   - predicate_2dx71c23112d38d2a9_3 >= -1
 R28: rho + 1000 predicate_2dx26371b974849c3b1_4 + x_4 >= 7
 R29: rho + 1000 predicate_2dx26371b974849c3b1_4 + x_4 <= 1007
 R30: - rho + x_4 - 1000 predicate_2dx71c23112d38d2a9_4 <= 1
 R31: - rho + x_4 - 1000 predicate_2dx71c23112d38d2a9_4 >= -999
 R32: &&_2dx59cee34f69f47c4d_4 - predicate_2dx26371b974849c3b1_4 <= 0
 R33: &&_2dx59cee34f69f47c4d_4 - predicate_2dx71c23112d38d2a9_4 <= 0
 R34: &&_2dx59cee34f69f47c4d_4 - predicate_2dx26371b974849c3b1_4
   - predicate_2dx71c23112d38d2a9_4 >= -1
 R35: rho + 1000 predicate_2dx26371b974849c3b1_5 + x_5 >= 7
 R36: rho + 1000 predicate_2dx26371b974849c3b1_5 + x_5 <= 1007
 R37: - rho + x_5 - 1000 predicate_2dx71c23112d38d2a9_5 <= 1
 R38: - rho + x_5 - 1000 predicate_2dx71c23112d38d2a9_5 >= -999
 R39: &&_2dx59cee34f69f47c4d_5 - predicate_2dx26371b974849c3b1_5 <= 0
 R40: &&_2dx59cee34f69f47c4d_5 - predicate_2dx71c23112d38d2a9_5 <= 0
 R41: &&_2dx59cee34f69f47c4d_5 - predicate_2dx26371b974849c3b1_5
   - predicate_2dx71c23112d38d2a9_5 >= -1
 R42: rho + 1000 predicate_2dx26371b974849c3b1_6 + x_6 >= 7
 R43: rho + 1000 predicate_2dx26371b974849c3b1_6 + x_6 <= 1007
 R44: - rho + x_6 - 1000 predicate_2dx71c23112d38d2a9_6 <= 1
 R45: - rho + x_6 - 1000 predicate_2dx71c23112d38d2a9_6 >= -999
 R46: &&_2dx59cee34f69f47c4d_6 - predicate_2dx26371b974849c3b1_6 <= 0
 R47: &&_2dx59cee34f69f47c4d_6 - predicate_2dx71c23112d38d2a9_6 <= 0
 R48: &&_2dx59cee34f69f47c4d_6 - predicate_2dx26371b974849c3b1_6
   - predicate_2dx71c23112d38d2a9_6 >= -1
 R49: rho + 1000 predicate_2dx26371b974849c3b1_7 + x_7 >= 7
 R50: rho + 1000 predicate_2dx26371b974849c3b1_7 + x_7 <= 1007
 R51: - rho + x_7 - 1000 predicate_2dx71c23112d38d2a9_7 <= 1
 R52: - rho + x_7 - 1000 predicate_2dx71c23112d38d2a9_7 >= -999
 R53: &&_2dx59cee34f69f47c4d_7 - predicate_2dx26371b974849c3b1_7 <= 0
 R54: &&_2dx59cee34f69f47c4d_7 - predicate_2dx71c23112d38d2a9_7 <= 0
 R55: &&_2dx59cee34f69f47c4d_7 - predicate_2dx26371b974849c3b1_7
   - predicate_2dx71c23112d38d2a9_7 >= -1
 R56: rho + 1000 predicate_2dx26371b974849c3b1_8 + x_8 >= 7
 R57: rho + 1000 predicate_2dx26371b974849c3b1_8 + x_8 <= 1007
 R58: - rho + x_8 - 1000 predicate_2dx71c23112d38d2a9_8 <= 1
 R59: - rho + x_8 - 1000 predicate_2dx71c23112d38d2a9_8 >= -999
 R60: &&_2dx59cee34f69f47c4d_8 - predicate_2dx26371b974849c3b1_8 <= 0
 R61: &&_2dx59cee34f69f47c4d_8 - predicate_2dx71c23112d38d2a9_8 <= 0
 R62: &&_2dx59cee34f69f47c4d_8 - predicate_2dx26371b974849c3b1_8
   - predicate_2dx71c23112d38d2a9_8 >= -1
 R63: rho + 1000 predicate_2dx26371b974849c3b1_9 + x_9 >= 7
 R64: rho + 1000 predicate_2dx26371b974849c3b1_9 + x_9 <= 1007
 R65: - rho + x_9 - 1000 predicate_2dx71c23112d38d2a9_9 <= 1
 R66: - rho + x_9 - 1000 predicate_2dx71c23112d38d2a9_9 >= -999
 R67: &&_2dx59cee34f69f47c4d_9 - predicate_2dx26371b974849c3b1_9 <= 0
 R68: &&_2dx59cee34f69f47c4d_9 - predicate_2dx71c23112d38d2a9_9 <= 0
 R69: &&_2dx59cee34f69f47c4d_9 - predicate_2dx26371b974849c3b1_9
   - predicate_2dx71c23112d38d2a9_9 >= -1
 R70: rho + 1000 predicate_2dx26371b974849c3b1_10 + x_10 >= 7
 R71: rho + 1000 predicate_2dx26371b974849c3b1_10 + x_10 <= 1007
 R72: - rho + x_10 - 1000 predicate_2dx71c23112d38d2a9_10 <= 1
 R73: - rho + x_10 - 1000 predicate_2dx71c23112d38d2a9_10 >= -999
 R74: &&_2dx59cee34f69f47c4d_10 - predicate_2dx26371b974849c3b1_10 <= 0
 R75: &&_2dx59cee34f69f47c4d_10 - predicate_2dx71c23112d38d2a9_10 <= 0
 R76: &&_2dx59cee34f69f47c4d_10 - predicate_2dx26371b974849c3b1_10
   - predicate_2dx71c23112d38d2a9_10 >= -1
 R77: rho + 1000 predicate_2dx26371b974849c3b1_11 + x_11 >= 7
 R78: rho + 1000 predicate_2dx26371b974849c3b1_11 + x_11 <= 1007
 R79: - rho + x_11 - 1000 predicate_2dx71c23112d38d2a9_11 <= 1
 R80: - rho + x_11 - 1000 predicate_2dx71c23112d38d2a9_11 >= -999
 R81: &&_2dx59cee34f69f47c4d_11 - predicate_2dx26371b974849c3b1_11 <= 0
 R82: &&_2dx59cee34f69f47c4d_11 - predicate_2dx71c23112d38d2a9_11 <= 0
 R83: &&_2dx59cee34f69f47c4d_11 - predicate_2dx26371b974849c3b1_11
   - predicate_2dx71c23112d38d2a9_11 >= -1
 R84: rho + 1000 predicate_2dx26371b974849c3b1_12 + x_12 >= 7
 R85: rho + 1000 predicate_2dx26371b974849c3b1_12 + x_12 <= 1007
 R86: - rho + x_12 - 1000 predicate_2dx71c23112d38d2a9_12 <= 1
 R87: - rho + x_12 - 1000 predicate_2dx71c23112d38d2a9_12 >= -999
 R88: &&_2dx59cee34f69f47c4d_12 - predicate_2dx26371b974849c3b1_12 <= 0
 R89: &&_2dx59cee34f69f47c4d_12 - predicate_2dx71c23112d38d2a9_12 <= 0
 R90: &&_2dx59cee34f69f47c4d_12 - predicate_2dx26371b974849c3b1_12
   - predicate_2dx71c23112d38d2a9_12 >= -1
 R91: rho + 1000 predicate_2dx26371b974849c3b1_13 + x_13 >= 7
 R92: rho + 1000 predicate_2dx26371b974849c3b1_13 + x_13 <= 1007
 R93: - rho + x_13 - 1000 predicate_2dx71c23112d38d2a9_13 <= 1
 R94: - rho + x_13 - 1000 predicate_2dx71c23112d38d2a9_13 >= -999
 R95: &&_2dx59cee34f69f47c4d_13 - predicate_2dx26371b974849c3b1_13 <= 0
 R96: &&_2dx59cee34f69f47c4d_13 - predicate_2dx71c23112d38d2a9_13 <= 0
 R97: &&_2dx59cee34f69f47c4d_13 - predicate_2dx26371b974849c3b1_13
   - predicate_2dx71c23112d38d2a9_13 >= -1
 R98: rho + 1000 predicate_2dx26371b974849c3b1_14 + x_14 >= 7
 R99: rho + 1000 predicate_2dx26371b974849c3b1_14 + x_14 <= 1007
 R100: - rho + x_14 - 1000 predicate_2dx71c23112d38d2a9_14 <= 1
 R101: - rho + x_14 - 1000 predicate_2dx71c23112d38d2a9_14 >= -999
 R102: &&_2dx59cee34f69f47c4d_14 - predicate_2dx26371b974849c3b1_14 <= 0
 R103: &&_2dx59cee34f69f47c4d_14 - predicate_2dx71c23112d38d2a9_14 <= 0
 R104: &&_2dx59cee34f69f47c4d_14 - predicate_2dx26371b974849c3b1_14
   - predicate_2dx71c23112d38d2a9_14 >= -1
 R105: rho + 1000 predicate_2dx26371b974849c3b1_15 + x_15 >= 7
 R106: rho + 1000 predicate_2dx26371b974849c3b1_15 + x_15 <= 1007
 R107: - rho + x_15 - 1000 predicate_2dx71c23112d38d2a9_15 <= 1
 R108: - rho + x_15 - 1000 predicate_2dx71c23112d38d2a9_15 >= -999
 R109: &&_2dx59cee34f69f47c4d_15 - predicate_2dx26371b974849c3b1_15 <= 0
 R110: &&_2dx59cee34f69f47c4d_15 - predicate_2dx71c23112d38d2a9_15 <= 0
 R111: &&_2dx59cee34f69f47c4d_15 - predicate_2dx26371b974849c3b1_15
   - predicate_2dx71c23112d38d2a9_15 >= -1
 R112: rho + 1000 predicate_2dx26371b974849c3b1_16 + x_16 >= 7
 R113: rho + 1000 predicate_2dx26371b974849c3b1_16 + x_16 <= 1007
 R114: - rho + x_16 - 1000 predicate_2dx71c23112d38d2a9_16 <= 1
 R115: - rho + x_16 - 1000 predicate_2dx71c23112d38d2a9_16 >= -999
 R116: &&_2dx59cee34f69f47c4d_16 - predicate_2dx26371b974849c3b1_16 <= 0
 R117: &&_2dx59cee34f69f47c4d_16 - predicate_2dx71c23112d38d2a9_16 <= 0
 R118: &&_2dx59cee34f69f47c4d_16 - predicate_2dx26371b974849c3b1_16
   - predicate_2dx71c23112d38d2a9_16 >= -1
 R119: rho + 1000 predicate_2dx26371b974849c3b1_17 + x_17 >= 7
 R120: rho + 1000 predicate_2dx26371b974849c3b1_17 + x_17 <= 1007
 R121: - rho + x_17 - 1000 predicate_2dx71c23112d38d2a9_17 <= 1
 R122: - rho + x_17 - 1000 predicate_2dx71c23112d38d2a9_17 >= -999
 R123: &&_2dx59cee34f69f47c4d_17 - predicate_2dx26371b974849c3b1_17 <= 0
 R124: &&_2dx59cee34f69f47c4d_17 - predicate_2dx71c23112d38d2a9_17 <= 0
 R125: &&_2dx59cee34f69f47c4d_17 - predicate_2dx26371b974849c3b1_17
   - predicate_2dx71c23112d38d2a9_17 >= -1
 R126: rho + 1000 predicate_2dx26371b974849c3b1_18 + x_18 >= 7
 R127: rho + 1000 predicate_2dx26371b974849c3b1_18 + x_18 <= 1007
 R128: - rho + x_18 - 1000 predicate_2dx71c23112d38d2a9_18 <= 1
 R129: - rho + x_18 - 1000 predicate_2dx71c23112d38d2a9_18 >= -999
 R130: &&_2dx59cee34f69f47c4d_18 - predicate_2dx26371b974849c3b1_18 <= 0
 R131: &&_2dx59cee34f69f47c4d_18 - predicate_2dx71c23112d38d2a9_18 <= 0
 R132: &&_2dx59cee34f69f47c4d_18 - predicate_2dx26371b974849c3b1_18
   - predicate_2dx71c23112d38d2a9_18 >= -1
 R133: rho + 1000 predicate_2dx26371b974849c3b1_19 + x_19 >= 7
 R134: rho + 1000 predicate_2dx26371b974849c3b1_19 + x_19 <= 1007
 R135: - rho + x_19 - 1000 predicate_2dx71c23112d38d2a9_19 <= 1
 R136: - rho + x_19 - 1000 predicate_2dx71c23112d38d2a9_19 >= -999
 R137: &&_2dx59cee34f69f47c4d_19 - predicate_2dx26371b974849c3b1_19 <= 0
 R138: &&_2dx59cee34f69f47c4d_19 - predicate_2dx71c23112d38d2a9_19 <= 0
 R139: &&_2dx59cee34f69f47c4d_19 - predicate_2dx26371b974849c3b1_19
   - predicate_2dx71c23112d38d2a9_19 >= -1
 R140: G_2bx7323ed7d6974cbb6_0 - &&_2dx59cee34f69f47c4d_0 <= 0
 R141: G_2bx7323ed7d6974cbb6_0 - &&_2dx59cee34f69f47c4d_1 <= 0
 R142: G_2bx7323ed7d6974cbb6_0 - &&_2dx59cee34f69f47c4d_2 <= 0
 R143: G_2bx7323ed7d6974cbb6_0 - &&_2dx59cee34f69f47c4d_3 <= 0
 R144: G_2bx7323ed7d6974cbb6_0 - &&_2dx59cee34f69f47c4d_4 <= 0
 R145: G_2bx7323ed7d6974cbb6_0 - &&_2dx59cee34f69f47c4d_5 <= 0
 R146: G_2bx7323ed7d6974cbb6_0 - &&_2dx59cee34f69f47c4d_6 <= 0
 R147: G_2bx7323ed7d6974cbb6_0 - &&_2dx59cee34f69f47c4d_7 <= 0
 R148: G_2bx7323ed7d6974cbb6_0 - &&_2dx59cee34f69f47c4d_8 <= 0
 R149: G_2bx7323ed7d6974cbb6_0 - &&_2dx59cee34f69f47c4d_9 <= 0
 R150: G_2bx7323ed7d6974cbb6_0 - &&_2dx59cee34f69f47c4d_10 <= 0
 R151: G_2bx7323ed7d6974cbb6_0 - &&_2dx59cee34f69f47c4d_11 <= 0
 R152: G_2bx7323ed7d6974cbb6_0 - &&_2dx59cee34f69f47c4d_12 <= 0
 R153: G_2bx7323ed7d6974cbb6_0 - &&_2dx59cee34f69f47c4d_13 <= 0
 R154: G_2bx7323ed7d6974cbb6_0 - &&_2dx59cee34f69f47c4d_14 <= 0
 R155: G_2bx7323ed7d6974cbb6_0 - &&_2dx59cee34f69f47c4d_15 <= 0
 R156: G_2bx7323ed7d6974cbb6_0 - &&_2dx59cee34f69f47c4d_16 <= 0
 R157: G_2bx7323ed7d6974cbb6_0 - &&_2dx59cee34f69f47c4d_17 <= 0
 R158: G_2bx7323ed7d6974cbb6_0 - &&_2dx59cee34f69f47c4d_18 <= 0
 R159: G_2bx7323ed7d6974cbb6_0 - &&_2dx59cee34f69f47c4d_19 <= 0
 R160: G_2bx7323ed7d6974cbb6_0 - &&_2dx59cee34f69f47c4d_0
   - &&_2dx59cee34f69f47c4d_1 - &&_2dx59cee34f69f47c4d_2
   - &&_2dx59cee34f69f47c4d_3 - &&_2dx59cee34f69f47c4d_4
   - &&_2dx59cee34f69f47c4d_5 - &&_2dx59cee34f69f47c4d_6
   - &&_2dx59cee34f69f47c4d_7 - &&_2dx59cee34f69f47c4d_8
   - &&_2dx59cee34f69f47c4d_9 - &&_2dx59cee34f69f47c4d_10
   - &&_2dx59cee34f69f47c4d_11 - &&_2dx59cee34f69f47c4d_12
   - &&_2dx59cee34f69f47c4d_13 - &&_2dx59cee34f69f47c4d_14
   - &&_2dx59cee34f69f47c4d_15 - &&_2dx59cee34f69f47c4d_16
   - &&_2dx59cee34f69f47c4d_17 - &&_2dx59cee34f69f47c4d_18
   - &&_2dx59cee34f69f47c4d_19 >= -19
 formula_satisfaction: G_2bx7323ed7d6974cbb6_0 = 1
Bounds
 -infinity <= rho <= 999
 x_0 <= 10
 x_1 <= 10
 x_2 <= 10
 x_3 <= 10
 x_4 <= 10
 x_5 <= 10
 x_6 <= 10
 x_7 <= 10
 x_8 <= 10
 x_9 <= 10
 x_10 <= 10
 x_11 <= 10
 x_12 <= 10
 x_13 <= 10
 x_14 <= 10
 x_15 <= 10
 x_16 <= 10
 x_17 <= 10
 x_18 <= 10
 x_19 <= 10
 C82 free
 C83 free
 C84 free
 C85 free
 C86 free
 C87 free
 C88 free
 C89 free
 C90 free
 C91 free
 C92 free
 C93 free
 C94 free
 C95 free
 C96 free
 C97 free
Binaries
 G_2bx7323ed7d6974cbb6_0 &&_2dx59cee34f69f47c4d_0
 predicate_2dx26371b974849c3b1_0 predicate_2dx71c23112d38d2a9_0
 &&_2dx59cee34f69f47c4d_1 predicate_2dx26371b974849c3b1_1
 predicate_2dx71c23112d38d2a9_1 &&_2dx59cee34f69f47c4d_2
 predicate_2dx26371b974849c3b1_2 predicate_2dx71c23112d38d2a9_2
 &&_2dx59cee34f69f47c4d_3 predicate_2dx26371b974849c3b1_3
 predicate_2dx71c23112d38d2a9_3 &&_2dx59cee34f69f47c4d_4
 predicate_2dx26371b974849c3b1_4 predicate_2dx71c23112d38d2a9_4
 &&_2dx59cee34f69f47c4d_5 predicate_2dx26371b974849c3b1_5
 predicate_2dx71c23112d38d2a9_5 &&_2dx59cee34f69f47c4d_6
 predicate_2dx26371b974849c3b1_6 predicate_2dx71c23112d38d2a9_6
 &&_2dx59cee34f69f47c4d_7 predicate_2dx26371b974849c3b1_7
 predicate_2dx71c23112d38d2a9_7 &&_2dx59cee34f69f47c4d_8
 predicate_2dx26371b974849c3b1_8 predicate_2dx71c23112d38d2a9_8
 &&_2dx59cee34f69f47c4d_9 predicate_2dx26371b974849c3b1_9
 predicate_2dx71c23112d38d2a9_9 &&_2dx59cee34f69f47c4d_10
 predicate_2dx26371b974849c3b1_10 predicate_2dx71c23112d38d2a9_10
 &&_2dx59cee34f69f47c4d_11 predicate_2dx26371b974849c3b1_11
 predicate_2dx71c23112d38d2a9_11 &&_2dx59cee34f69f47c4d_12
 predicate_2dx26371b974849c3b1_12 predicate_2dx71c23112d38d2a9_12
 &&_2dx59cee34f69f47c4d_13 predicate_2dx26371b974849c3b1_13
 predicate_2dx71c23112d38d2a9_13 &&_2dx59cee34f69f47c4d_14
 predicate_2dx26371b974849c3b1_14 predicate_2dx71c23112d38d2a9_14
 &&_2dx59cee34f69f47c4d_15 predicate_2dx26371b974849c3b1_15
 predicate_2dx71c23112d38d2a9_15 &&_2dx59cee34f69f47c4d_16
 predicate_2dx26371b974849c3b1_16 predicate_2dx71c23112d38d2a9_16
 &&_2dx59cee34f69f47c4d_17 predicate_2dx26371b974849c3b1_17
 predicate_2dx71c23112d38d2a9_17 &&_2dx59cee34f69f47c4d_18
 predicate_2dx26371b974849c3b1_18 predicate_2dx71c23112d38d2a9_18
 &&_2dx59cee34f69f47c4d_19 predicate_2dx26371b974849c3b1_19
 predicate_2dx71c23112d38d2a9_19
End
